0000000000000000
0111111111000000
0111111111110000
0110000011111000
0000000000111000
0000000000111100
0000000000111100
0011000000011100
0111000000011100
0111000000011100
0111000000011100
0111000000011100
0111000000011100
0111000000011100
0111000000011100
0111000000011100
